Read MPS format model from file dat/rmp/DER_24_4096_30.mps
Reading time = 0.17 seconds
: 4120 rows, 19528 columns, 440736 nonzeros
Gurobi Optimizer version 9.0.0 build v9.0.0rc2 (linux64)
Optimize a model with 4120 rows, 19528 columns and 440736 nonzeros
Model fingerprint: 0xac2d4172
Coefficient statistics:
  Matrix range     [2e-04, 1e+01]
  Objective range  [2e-01, 1e+03]
  Bounds range     [2e+04, 2e+04]
  RHS range        [1e+00, 1e+00]
Ordering time: 0.00s

Barrier statistics:
 AA' NZ     : 9.350e+04
 Factor NZ  : 1.317e+05 (roughly 10 MBytes of memory)
 Factor Ops : 4.587e+06 (less than 1 second per iteration)
 Threads    : 1

                  Objective                Residual
Iter       Primal          Dual         Primal    Dual     Compl     Time
   0   3.43136425e+08 -2.79416358e+07  5.23e+06 1.10e-02  3.12e+05     0s
   1   9.25436085e+06 -6.40504844e+06  1.33e+05 3.64e-12  8.23e+03     0s
   2   3.49334492e+05 -3.62772074e+06  4.75e+03 3.64e-12  4.65e+02     0s
   3   6.53369782e+03 -1.07011141e+06  3.80e-11 1.82e-12  5.51e+01     0s
   4   5.97551039e+03  2.82319113e+03  2.59e-11 5.46e-12  1.61e-01     0s
   5   5.90733193e+03  5.34859461e+03  2.70e-11 3.64e-12  2.86e-02     0s
   6   5.85777472e+03  5.72725216e+03  3.09e-11 1.82e-12  6.68e-03     0s
   7   5.83829181e+03  5.76479346e+03  4.86e-11 1.82e-12  3.76e-03     0s
   8   5.82342803e+03  5.78553223e+03  3.13e-11 1.82e-12  1.94e-03     0s
   9   5.80655280e+03  5.79626956e+03  1.33e-10 3.64e-12  5.26e-04     0s
  10   5.80170143e+03  5.79902588e+03  8.97e-11 1.82e-12  1.37e-04     0s
  11   5.80081680e+03  5.80009966e+03  1.84e-10 3.64e-12  3.67e-05     0s
  12   5.80065298e+03  5.80025314e+03  3.19e-10 1.82e-12  2.05e-05     0s
  13   5.80058468e+03  5.80036896e+03  5.87e-10 1.82e-12  1.10e-05     0s
  14   5.80054119e+03  5.80040841e+03  9.27e-10 1.82e-12  6.79e-06     0s
  15   5.80052665e+03  5.80044582e+03  5.98e-10 3.64e-12  4.13e-06     0s
  16   5.80052053e+03  5.80045935e+03  4.32e-10 3.64e-12  3.13e-06     0s
  17   5.80051628e+03  5.80046507e+03  4.44e-10 3.64e-12  2.62e-06     0s
  18   5.80051287e+03  5.80046924e+03  4.62e-10 3.64e-12  2.23e-06     1s
  19   5.80050663e+03  5.80047202e+03  9.51e-10 3.64e-12  1.77e-06     1s
  20   5.80050345e+03  5.80047448e+03  8.05e-10 1.82e-12  1.48e-06     1s
  21   5.80050204e+03  5.80047546e+03  9.81e-10 3.64e-12  1.36e-06     1s
  22   5.80049982e+03  5.80047825e+03  8.04e-10 1.82e-12  1.10e-06     1s
  23   5.80049885e+03  5.80048068e+03  8.43e-10 1.82e-12  9.29e-07     1s
  24   5.80049524e+03  5.80048244e+03  1.61e-09 1.82e-12  6.55e-07     1s
  25   5.80049444e+03  5.80048291e+03  1.83e-09 1.82e-12  5.90e-07     1s
  26   5.80049396e+03  5.80048385e+03  1.69e-09 1.82e-12  5.17e-07     1s
  27   5.80049326e+03  5.80048447e+03  1.46e-09 1.82e-12  4.49e-07     1s
  28   5.80049199e+03  5.80048510e+03  1.61e-09 1.82e-12  3.52e-07     1s
  29   5.80049070e+03  5.80048559e+03  2.51e-09 1.82e-12  2.61e-07     1s
  30   5.80048996e+03  5.80048590e+03  2.55e-09 1.82e-12  2.08e-07     1s
  31   5.80048977e+03  5.80048646e+03  2.52e-09 1.82e-12  1.70e-07     1s
  32   5.80048886e+03  5.80048674e+03  4.67e-09 1.82e-12  1.09e-07     1s
  33   5.80048874e+03  5.80048681e+03  4.42e-09 1.82e-12  9.85e-08     1s
  34   5.80048834e+03  5.80048723e+03  3.65e-09 1.82e-12  5.65e-08     1s
  35   5.80048812e+03  5.80048735e+03  1.42e-08 1.82e-12  3.94e-08     1s
  36   5.80048793e+03  5.80048742e+03  5.81e-08 1.82e-12  2.65e-08     1s
  37   5.80048790e+03  5.80048743e+03  5.54e-08 3.64e-12  2.40e-08     1s
  38   5.80048785e+03  5.80048746e+03  4.49e-08 1.82e-12  1.99e-08     1s
  39   5.80048773e+03  5.80048749e+03  3.13e-07 1.82e-12  1.20e-08     1s
  40   5.80048765e+03  5.80048751e+03  2.75e-07 1.82e-12  7.28e-09     1s
  41   5.80048762e+03  5.80048752e+03  1.49e-07 3.64e-12  4.94e-09     1s
  42   5.80048757e+03  5.80048752e+03  2.66e-07 3.64e-12  2.48e-09     1s

Barrier solved model in 42 iterations and 0.99 seconds
Optimal objective 5.80048757e+03

Solve time: 0.989346894
Barrier iterations: 42
